solution status: optimal solution found
objective value:                                   17
x34                                                 1 	(obj:1)
x35                                                 1 	(obj:1)
x36                                                 1 	(obj:1)
x37                                                 1 	(obj:1)
x38                                                 1 	(obj:1)
x39                                                 1 	(obj:1)
x40                                                 1 	(obj:1)
x42                                                 1 	(obj:1)
x43                                                 1 	(obj:1)
x44                                                 1 	(obj:1)
x48                                                 1 	(obj:1)
x49                                                 1 	(obj:1)
x50                                                 1 	(obj:1)
x56                                                 1 	(obj:1)
x78                                                 1 	(obj:1)
x79                                                 1 	(obj:1)
x80                                                 1 	(obj:1)
one.pinholes[1].hole_out_c_y                       18 	(obj:0)
one.pinholes[1].hole_out_c_z                       19 	(obj:0)
$_18__9_y                                         -15 	(obj:0)
$_18__9_z                                          19 	(obj:0)
one.ctrl_a[11].flush_y                             15 	(obj:0)
one.ctrl_a[11].flush_z                             11 	(obj:0)
$_19__9_y                                         -16 	(obj:0)
$_19__9_z                                          20 	(obj:0)
one.pinholes[0].hole_out_c_y                       19 	(obj:0)
one.pinholes[0].hole_out_c_z                       18 	(obj:0)
one.ctrl_a[10].hole_y                              15 	(obj:0)
one.ctrl_a[10].hole_z                              15 	(obj:0)
one.ctrl_a[10].flush_y                             15 	(obj:0)
one.ctrl_a[10].flush_z                             12 	(obj:0)
one.thingy.devices[2].thingy.vs3_y                   18 	(obj:0)
one.thingy.devices[2].thingy.vs3_z                   16 	(obj:0)
one.thingy.devices[0].thingy.vs3_y                   19 	(obj:0)
one.thingy.devices[0].thingy.vs3_z                   19 	(obj:0)
one.thingy.devices[3].thingy.vs3_y                   19 	(obj:0)
one.thingy.devices[3].thingy.vs3_z                   16 	(obj:0)
one.thingy.devices[1].thingy.vs3_y                   18 	(obj:0)
one.thingy.devices[1].thingy.vs3_z                   18 	(obj:0)
$_21__9_y                                          20 	(obj:0)
$_21__9_z                                          18 	(obj:0)
$_20__9_y                                          20 	(obj:0)
$_20__9_z                                          21 	(obj:0)
one.pinholes[3].hole_out_c_y                       19 	(obj:0)
one.pinholes[3].hole_out_c_z                       15 	(obj:0)
one.ctrl_a[11].hole_y                              15 	(obj:0)
one.ctrl_a[11].hole_z                              14 	(obj:0)
one.pinholes[2].hole_out_c_y                       20 	(obj:0)
one.pinholes[2].hole_out_c_z                       16 	(obj:0)
